NAME : X_26_seed_123_id_4
TYPE : CVRP
DIMENSION : 219
EDGE_WEIGHT_TYPE : EUC_2D
CAPACITY : 3
NODE_COORD_SECTION
1	0	0
2	216	330
3	954	759
4	622	414
5	587	152
6	985	422
7	55	460
8	157	258
9	542	127
10	212	45
11	674	887
12	604	140
13	797	453
14	138	778
15	579	241
16	405	353
17	477	68
18	286	603
19	414	342
20	514	162
21	340	571
22	852	521
23	250	459
24	666	868
25	139	854
26	597	470
27	598	910
28	665	411
29	396	98
30	484	555
31	37	771
32	205	302
33	996	519
34	609	961
35	519	728
36	346	586
37	826	58
38	528	377
39	413	818
40	485	568
41	375	137
42	801	121
43	654	246
44	853	511
45	408	141
46	664	876
47	180	272
48	362	321
49	348	84
50	303	897
51	124	446
52	307	863
53	71	355
54	436	474
55	282	56
56	617	918
57	188	267
58	325	170
59	151	100
60	568	24
61	787	174
62	684	740
63	133	886
64	724	414
65	608	111
66	208	121
67	416	624
68	321	116
69	487	992
70	385	428
71	909	770
72	217	727
73	380	523
74	690	584
75	3	644
76	52	580
77	587	172
78	650	859
79	637	538
80	501	725
81	770	532
82	650	27
83	924	592
84	457	974
85	624	127
86	555	412
87	579	998
88	407	620
89	151	653
90	631	793
91	202	258
92	138	686
93	945	517
94	51	32
95	752	656
96	295	657
97	299	622
98	259	355
99	751	230
100	240	56
101	334	944
102	424	345
103	416	703
104	283	861
105	435	173
106	347	876
107	187	423
108	97	9
109	949	230
110	48	334
111	171	499
112	733	509
113	795	166
114	473	793
115	363	128
116	85	598
117	472	903
118	929	380
119	883	910
120	65	651
121	185	145
122	570	956
123	518	169
124	986	193
125	354	941
126	442	431
127	76	323
128	987	150
129	626	145
130	660	870
131	124	653
132	332	817
133	851	716
134	263	899
135	69	23
136	379	753
137	791	944
138	275	140
139	117	865
140	839	185
141	161	814
142	516	911
143	463	973
144	666	425
145	955	105
146	158	653
147	606	118
148	973	215
149	866	883
150	398	251
151	19	369
152	953	411
153	613	794
154	512	907
155	570	634
156	998	474
157	867	893
158	350	919
159	479	339
160	918	752
161	258	143
162	302	65
163	36	212
164	386	316
165	892	651
166	347	472
167	762	700
168	719	523
169	724	748
170	377	661
171	402	523
172	715	111
173	817	150
174	763	233
175	482	136
176	212	528
177	1	804
178	700	330
179	980	196
180	161	241
181	249	484
182	95	393
183	486	76
184	897	790
185	999	130
186	852	201
187	130	78
188	62	841
189	814	456
190	436	15
191	471	211
192	157	268
193	960	195
194	955	134
195	439	561
196	483	212
197	29	38
198	637	830
199	666	880
200	345	338
201	525	438
202	883	39
203	313	542
204	646	254
205	96	584
206	321	953
207	635	995
208	125	454
209	68	725
210	865	207
211	205	443
212	456	517
213	428	431
214	374	754
215	612	886
216	808	702
217	257	887
218	570	548
219	811	297
DEMAND_SECTION
1	0
2	1
3	1
4	1
5	1
6	1
7	1
8	1
9	1
10	1
11	1
12	1
13	1
14	1
15	1
16	1
17	1
18	1
19	1
20	1
21	1
22	1
23	1
24	1
25	1
26	1
27	1
28	1
29	1
30	1
31	1
32	1
33	1
34	1
35	1
36	1
37	1
38	1
39	1
40	1
41	1
42	1
43	1
44	1
45	1
46	1
47	1
48	1
49	1
50	1
51	1
52	1
53	1
54	1
55	1
56	1
57	1
58	1
59	1
60	1
61	1
62	1
63	1
64	1
65	1
66	1
67	1
68	1
69	1
70	1
71	1
72	1
73	1
74	1
75	1
76	1
77	1
78	1
79	1
80	1
81	1
82	1
83	1
84	1
85	1
86	1
87	1
88	1
89	1
90	1
91	1
92	1
93	1
94	1
95	1
96	1
97	1
98	1
99	1
100	1
101	1
102	1
103	1
104	1
105	1
106	1
107	1
108	1
109	1
110	1
111	1
112	1
113	1
114	1
115	1
116	1
117	1
118	1
119	1
120	1
121	1
122	1
123	1
124	1
125	1
126	1
127	1
128	1
129	1
130	1
131	1
132	1
133	1
134	1
135	1
136	1
137	1
138	1
139	1
140	1
141	1
142	1
143	1
144	1
145	1
146	1
147	1
148	1
149	1
150	1
151	1
152	1
153	1
154	1
155	1
156	1
157	1
158	1
159	1
160	1
161	1
162	1
163	1
164	1
165	1
166	1
167	1
168	1
169	1
170	1
171	1
172	1
173	1
174	1
175	1
176	1
177	1
178	1
179	1
180	1
181	1
182	1
183	1
184	1
185	1
186	1
187	1
188	1
189	1
190	1
191	1
192	1
193	1
194	1
195	1
196	1
197	1
198	1
199	1
200	1
201	1
202	1
203	1
204	1
205	1
206	1
207	1
208	1
209	1
210	1
211	1
212	1
213	1
214	1
215	1
216	1
217	1
218	1
219	1
DEPOT_SECTION
1
-1
EOF
